%block AtomicCoordinatesAndAtomicSpecies
0.013546547 0.027011532 0.510838842	1
0.013440172 0.067794009 0.518981756	1
0.013385793 0.108003499 0.533823218	1
0.013394425 0.147978870 0.553393185	1
0.013343169 0.187751759 0.574578651	1
0.013501177 0.227663060 0.595071199	1
0.013545779 0.267390419 0.612800980	1
0.013558091 0.307128500 0.627779029	1
0.013597979 0.347168819 0.640792432	1
0.013343076 0.387195508 0.651785571	1
0.013386643 0.426970134 0.659348621	1
0.013680199 0.466972587 0.663275579	1
0.013775288 0.506879796 0.664358046	1
0.013707411 0.546652289 0.663545285	1
0.013363271 0.586383830 0.659554181	1
0.013338988 0.626170812 0.652023215	1
0.013531646 0.666383829 0.641068797	1
0.013436734 0.706368834 0.628217452	1
0.013458264 0.746133110 0.613212270	1
0.013437843 0.785677789 0.595689151	1
0.013301332 0.825475375 0.575077575	1
0.013420989 0.865387617 0.553774450	1
0.013405364 0.905325634 0.534010628	1
0.013423236 0.945611899 0.519005085	1
0.013539077 0.986524203 0.510846480	1
0.054417239 0.027178691 0.514955361	1
0.054392288 0.067796570 0.519027423	1
0.054056686 0.108074948 0.530708806	1
0.053829348 0.148053020 0.548108731	1
0.053767671 0.187953304 0.568507896	1
0.053820521 0.227635924 0.589070789	1
0.053625563 0.267430950 0.608227300	1
0.053762169 0.307393019 0.624595129	1
0.053860851 0.347308123 0.638940712	1
0.053786327 0.387264698 0.650480562	1
0.053386747 0.426929271 0.659573580	1
0.053688791 0.467065864 0.665404370	1
0.054218023 0.507200929 0.668261828	1
0.054224457 0.546966960 0.668382489	1
0.053677267 0.586596692 0.665664836	1
0.053415333 0.626449695 0.659902171	1
0.053736268 0.666415679 0.650818199	1
0.053710143 0.706366474 0.639637422	1
0.053602451 0.746228805 0.625674304	1
0.053576628 0.785961381 0.609110432	1
0.053643361 0.825918458 0.590027878	1
0.053647258 0.865600657 0.568993093	1
0.053791091 0.905661229 0.548130046	1
0.054078689 0.945890814 0.530651543	1
0.054388548 0.986572975 0.519017777	1
0.094707153 0.026984086 0.526464798	1
0.094706878 0.067698207 0.526497439	1
0.094635298 0.107978465 0.534038556	1
0.094278649 0.147981619 0.548167213	1
0.094085771 0.188052394 0.566623741	1
0.093780290 0.227742667 0.586454026	1
0.093825238 0.267479420 0.605962917	1
0.093931416 0.307464011 0.623844735	1
0.093943588 0.347254104 0.638926130	1
0.093797930 0.387131287 0.651949686	1
0.093732468 0.427258344 0.662502892	1
0.093999470 0.467088946 0.669788737	1
0.094104475 0.507099998 0.674154600	1
0.093989230 0.546904578 0.675404834	1
0.094024112 0.586885883 0.674368271	1
0.093990942 0.626848317 0.670026984	1
0.093710835 0.666473522 0.662685984	1
0.093786514 0.706652305 0.652143802	1
0.093761398 0.746491007 0.639468747	1
0.093847543 0.786404656 0.624544244	1
0.093808343 0.826084991 0.607165579	1
0.093652786 0.865954473 0.587113855	1
0.094033542 0.905933876 0.566865256	1
0.094288978 0.946177438 0.548126814	1
0.094671375 0.986589855 0.533997913	1
0.134952369 0.027255708 0.544154129	1
0.135114278 0.067454939 0.540812626	1
0.134920454 0.107631112 0.544112277	1
0.134565926 0.147941090 0.553689988	1
0.134242944 0.187938870 0.568504618	1
0.134080684 0.227763419 0.586374674	1
0.133749492 0.267365206 0.605496553	1
0.133835408 0.307365709 0.624384004	1
0.133852242 0.347195240 0.640107090	1
0.133680456 0.387098518 0.653362883	1
0.133849849 0.427201387 0.665456334	1
0.133780610 0.466852450 0.674141153	1
0.133950507 0.506973684 0.679704438	1
0.133831230 0.546953178 0.682486341	1
0.133822114 0.586841999 0.682545333	1
0.133893519 0.626850321 0.679863767	1
0.133773193 0.666897577 0.674267011	1
0.133822225 0.706632870 0.665573626	1
0.133628605 0.746541052 0.653520732	1
0.133800448 0.786489712 0.640336157	1
0.133755288 0.826375575 0.624728618	1
0.133634147 0.866243306 0.606082770	1
0.133986301 0.906150217 0.586822888	1
0.134189811 0.946167586 0.568714715	1
0.134585910 0.986564109 0.553705753	1
0.174925676 0.027073507 0.564543994	1
0.174876950 0.067299988 0.559493746	1
0.175001851 0.107549482 0.559601043	1
0.174936728 0.147779754 0.564563753	1
0.174504693 0.187762359 0.574845483	1
0.173943630 0.227624375 0.589168383	1
0.173806723 0.267551671 0.605942847	1
0.173716358 0.307275064 0.624004546	1
0.173643738 0.347099746 0.640668352	1
0.173652821 0.386968678 0.655169750	1
0.173563150 0.426961280 0.667357119	1
0.173886811 0.467088235 0.677769829	1
0.173992417 0.506917531 0.684994090	1
0.173711804 0.546839198 0.688530714	1
0.173708122 0.586761204 0.690034999	1
0.173589227 0.626703424 0.688638232	1
0.173917219 0.666992051 0.685203448	1
0.173855212 0.706763141 0.677887434	1
0.173524604 0.746574622 0.667388588	1
0.173545737 0.786519716 0.655105848	1
0.173495586 0.826374375 0.640738902	1
0.173590531 0.866216719 0.624639436	1
0.173800296 0.906147584 0.606663214	1
0.173907268 0.946232318 0.589458009	1
0.174473637 0.986664072 0.574880003	1
0.214322051 0.026835799 0.585163209	1
0.214683211 0.067306914 0.579472831	1
0.214868168 0.107256104 0.577805774	1
0.214661603 0.147347795 0.579499268	1
0.214315730 0.187435234 0.585118141	1
0.214223133 0.227719997 0.595317269	1
0.213953012 0.267516963 0.608610903	1
0.213614734 0.307441770 0.623973528	1
0.213653208 0.347259944 0.639779515	1
0.213492855 0.386984374 0.655035140	1
0.213556507 0.426999452 0.668497085	1
0.213580558 0.466931586 0.679604185	1
0.213582457 0.506860693 0.688527677	1
0.213675198 0.546955615 0.693767661	1
0.213557828 0.586647180 0.696201778	1
0.213567102 0.626908601 0.696186498	1
0.213646372 0.666651451 0.693757140	1
0.213495308 0.706708428 0.688588040	1
0.213576021 0.746642443 0.679642013	1
0.213465842 0.786454820 0.668474991	1
0.213393403 0.826396848 0.655183105	1
0.213501620 0.866193102 0.640347539	1
0.213595532 0.906149413 0.624427260	1
0.213944401 0.946385316 0.608811511	1
0.214217400 0.986486232 0.595372754	1
0.254158718 0.026754690 0.604407916	1
0.254467356 0.067048897 0.599271319	1
0.254338709 0.107127208 0.597060677	1
0.254362128 0.147205357 0.597065349	1
0.254469644 0.187381519 0.599304056	1
0.254157643 0.227399227 0.604413994	1
0.253862618 0.267335470 0.612990317	1
0.253831212 0.307396757 0.625383426	1
0.253667925 0.347224883 0.639107556	1
0.253488662 0.387097986 0.653340688	1
0.253454136 0.426929171 0.667315169	1
0.253357570 0.466929341 0.679636653	1
0.253569451 0.507105915 0.690477817	1
0.253611878 0.546873405 0.697570674	1
0.253525655 0.586916197 0.700047997	1
0.253691738 0.626817038 0.701072931	1
0.253379688 0.666613994 0.700017111	1
0.253614406 0.706735742 0.697632751	1
0.253550411 0.746430822 0.690550143	1
0.253355602 0.786424325 0.679627245	1
0.253413409 0.826443452 0.667360587	1
0.253440679 0.866358941 0.653517983	1
0.253482592 0.906230224 0.639443897	1
0.253774877 0.946414401 0.625559230	1
0.253858744 0.986525510 0.613077225	1
0.293846090 0.026661291 0.620733915	1
0.294011586 0.066944085 0.616730284	1
0.294209568 0.107097910 0.615227838	1
0.294311621 0.146971704 0.614837384	1
0.294182419 0.187074388 0.615192809	1
0.294025927 0.227042817 0.616792590	1
0.293874559 0.267201795 0.620706597	1
0.293734547 0.307149031 0.627959722	1
0.293699957 0.347373595 0.639381110	1
0.293475065 0.387238135 0.651952149	1
0.293395552 0.427182404 0.665492398	1
0.293238249 0.467031024 0.677877158	1
0.293282079 0.506781331 0.688477475	1
0.293304907 0.546906618 0.697409046	1
0.293664327 0.587143264 0.701987374	1
0.293592138 0.626855742 0.702977235	1
0.293611235 0.666741429 0.702998658	1
0.293497717 0.706334685 0.702063720	1
0.293261636 0.746386323 0.697626696	1
0.293288282 0.786421369 0.688532798	1
0.293209852 0.826109286 0.677766754	1
0.293364751 0.866165605 0.665541706	1
0.293345596 0.906209294 0.652121837	1
0.293637356 0.946285319 0.639608629	1
0.293625818 0.986557533 0.628181506	1
0.333658176 0.026531119 0.634904481	1
0.333925840 0.066968997 0.631810633	1
0.333946416 0.106915164 0.631324741	1
0.333874033 0.146788315 0.630960741	1
0.333883983 0.187072538 0.630921820	1
0.333945872 0.227010812 0.631339594	1
0.333981095 0.266950605 0.631793787	1
0.333657195 0.307050129 0.634713917	1
0.333680579 0.347189563 0.640935623	1
0.333681147 0.387358844 0.650531043	1
0.333555477 0.427234305 0.662519745	1
0.333098307 0.466871729 0.674213902	1
0.332976942 0.506937483 0.685030081	1
0.333381573 0.546994350 0.693565979	1
0.333323280 0.586730882 0.699721671	1
0.333313406 0.626920400 0.702879092	1
0.333385267 0.666609922 0.703447876	1
0.333257905 0.706392517 0.703010693	1
0.333390091 0.746477277 0.700026406	1
0.333316009 0.786324811 0.693741004	1
0.332956798 0.826015172 0.684994179	1
0.333108466 0.866212171 0.674187372	1
0.333528546 0.906280695 0.662668504	1
0.333595421 0.946262697 0.650802660	1
0.333626511 0.986473860 0.641051314	1
0.373878428 0.026881597 0.647078497	1
0.373901423 0.067041049 0.644943875	1
0.373891090 0.107001826 0.645061902	1
0.373713040 0.146871310 0.645691551	1
0.373898701 0.186907374 0.646141552	1
0.373706182 0.226847297 0.645666003	1
0.373900486 0.266888864 0.645040708	1
0.373928214 0.306877390 0.644887337	1
0.373892201 0.346991720 0.646999713	1
0.373898078 0.387198318 0.651809099	1
0.373572452 0.426951867 0.659647801	1
0.373150315 0.467141131 0.669900134	1
0.373085579 0.507021168 0.679735011	1
0.373226249 0.546864585 0.688327560	1
0.373147671 0.586792816 0.695190319	1
0.373217280 0.626784190 0.700459729	1
0.373080571 0.666687353 0.702879586	1
0.373149629 0.706405298 0.702989124	1
0.373149915 0.746296047 0.701077400	1
0.373092221 0.786433344 0.696177244	1
0.373267143 0.826367460 0.688576831	1
0.373075666 0.866052250 0.679758973	1
0.373145563 0.906009586 0.669978951	1
0.373554005 0.946588669 0.659836307	1
0.373849694 0.986664306 0.651998926	1
0.413925886 0.027160574 0.656321407	1
0.414049200 0.067136214 0.655670784	1
0.414034656 0.107080161 0.656708968	1
0.413833043 0.146947960 0.658631074	1
0.413529819 0.186652319 0.659426005	1
0.413627486 0.226968848 0.659471451	1
0.413845459 0.266834321 0.658834297	1
0.414061274 0.306988413 0.656846256	1
0.414064783 0.346932554 0.655638472	1
0.413912269 0.386782921 0.656186372	1
0.413601548 0.426977194 0.659379809	1
0.413399755 0.467075853 0.665463417	1
0.413099779 0.507138306 0.674303804	1
0.413146991 0.546974193 0.682457365	1
0.413156176 0.586851995 0.689605546	1
0.413203774 0.626848541 0.695185688	1
0.413284248 0.666703027 0.699636302	1
0.412880913 0.706318604 0.701872299	1
0.413134437 0.746528307 0.700057470	1
0.413348556 0.786433617 0.696187115	1
0.413140639 0.826262690 0.690026687	1
0.413147771 0.866178018 0.682542647	1
0.413116436 0.905972757 0.674353496	1
0.413407258 0.946322923 0.665614462	1
0.413615623 0.986638103 0.659546299	1
0.453827664 0.026937044 0.662111371	1
0.453816638 0.067104838 0.663272387	1
0.453742838 0.107144852 0.665315503	1
0.453669986 0.147066219 0.668218079	1
0.453647514 0.187036952 0.671048533	1
0.453669137 0.226747653 0.671585028	1
0.453656306 0.266591304 0.671168057	1
0.453985232 0.306607349 0.669108070	1
0.453755135 0.346561804 0.665455785	1
0.453838920 0.386707455 0.663188047	1
0.453796555 0.426852395 0.661929089	1
0.453296302 0.466983252 0.663277328	1
0.453007953 0.507233460 0.668259211	1
0.453090304 0.547080071 0.675348025	1
0.453039793 0.586866813 0.682413145	1
0.453123738 0.626834079 0.688289360	1
0.453004438 0.666618133 0.693554392	1
0.453091623 0.706706241 0.697369454	1
0.453127463 0.746390496 0.697541756	1
0.453018995 0.786321307 0.693735217	1
0.453138901 0.826326951 0.688573918	1
0.453040063 0.866170868 0.682502126	1
0.453079460 0.905992534 0.675392226	1
0.453026372 0.945769420 0.668387854	1
0.453357122 0.986305839 0.663526347	1
0.493478334 0.026559848 0.664187749	1
0.493915688 0.067186923 0.667634612	1
0.493778879 0.107139557 0.671885940	1
0.493702317 0.146985862 0.676469979	1
0.493548798 0.186992248 0.680084081	1
0.493735930 0.226921615 0.681938467	1
0.493754178 0.266767702 0.681844463	1
0.493614156 0.306499403 0.680072002	1
0.493696011 0.346709259 0.676550664	1
0.493780779 0.386611481 0.671860392	1
0.493870924 0.426713523 0.667496863	1
0.493406508 0.466840876 0.664126625	1
0.493105228 0.506897160 0.664259350	1
0.492783606 0.547002083 0.668215330	1
0.492919626 0.587002878 0.674197002	1
0.493022291 0.626968268 0.679705503	1
0.493060769 0.667055254 0.684961648	1
0.493221878 0.706726982 0.688454148	1
0.492895117 0.746432134 0.690472704	1
0.493137458 0.786418439 0.688524467	1
0.493072487 0.826010450 0.684969155	1
0.493021826 0.866047615 0.679710231	1
0.492859900 0.905856969 0.674130728	1
0.492803481 0.945779046 0.668253553	1
0.493160002 0.986153835 0.664318699	1
0.533207791 0.026551019 0.664024699	1
0.533580452 0.066968007 0.668701326	1
0.533614607 0.107052122 0.674987628	1
0.533753404 0.147184878 0.681126263	1
0.533732641 0.187044185 0.686217595	1
0.533757399 0.226983950 0.690097027	1
0.533661757 0.266756007 0.690997168	1
0.533813416 0.306719999 0.689966813	1
0.533730126 0.346658919 0.686189846	1
0.533740231 0.386546957 0.681092242	1
0.533615869 0.426552233 0.674947726	1
0.533476596 0.466517336 0.668674521	1
0.533158998 0.506594401 0.664124639	1
0.533022831 0.546700323 0.663287932	1
0.532932197 0.586612234 0.665434502	1
0.532911913 0.626896926 0.669839187	1
0.533156807 0.666931612 0.674177688	1
0.532965249 0.706763974 0.677867505	1
0.533069342 0.746641405 0.679634072	1
0.533072226 0.786422964 0.679609397	1
0.532908548 0.826111163 0.677767354	1
0.533124569 0.866211217 0.674129192	1
0.532910299 0.905999842 0.669778239	1
0.532935644 0.946297168 0.665354268	1
0.532988951 0.986266562 0.663221759	1
0.573172507 0.026612853 0.661152923	1
0.573208684 0.067009230 0.667250942	1
0.573456613 0.107057966 0.674962813	1
0.573522820 0.146935935 0.682200962	1
0.573494130 0.186894870 0.688714954	1
0.573700965 0.226877196 0.694556551	1
0.573608922 0.266877349 0.697645028	1
0.573613134 0.306713150 0.697645399	1
0.573705222 0.346817740 0.694549672	1
0.573494328 0.386593808 0.688706697	1
0.573424418 0.426485933 0.682190512	1
0.573450309 0.466386199 0.674946497	1
0.573293161 0.506113701 0.667528963	1
0.573142446 0.546198683 0.661956627	1
0.573025433 0.586399236 0.659386961	1
0.573056257 0.626431852 0.659634691	1
0.572788003 0.666461301 0.662517404	1
0.572819736 0.706609174 0.665485996	1
0.573072528 0.746548130 0.667317709	1
0.573002687 0.786444163 0.668486371	1
0.573039147 0.826437641 0.667357991	1
0.572799428 0.866150521 0.665453991	1
0.572744131 0.906267640 0.662526277	1
0.573054504 0.946569491 0.659590599	1
0.573046059 0.986554090 0.659130273	1
0.613191027 0.027027309 0.655929891	1
0.613269568 0.067095527 0.662952675	1
0.613407642 0.107141401 0.671731670	1
0.613446709 0.147183201 0.681076063	1
0.613420809 0.186899027 0.688682379	1
0.613366576 0.226721262 0.695322367	1
0.613574741 0.266927364 0.700262924	1
0.613634774 0.306811353 0.701550070	1
0.613562480 0.346630577 0.700298387	1
0.613358807 0.386640109 0.695375304	1
0.613407684 0.426509365 0.688708958	1
0.613455208 0.466255593 0.681088405	1
0.613383518 0.506212821 0.671875969	1
0.613299347 0.546164896 0.663231451	1
0.613242583 0.586080757 0.656248350	1
0.612798820 0.626101180 0.651813393	1
0.612647719 0.666335789 0.650577315	1
0.612769741 0.706531373 0.651956139	1
0.612903153 0.746511864 0.653341358	1
0.613014894 0.786508130 0.655033883	1
0.613031400 0.826346703 0.655166561	1
0.612902644 0.866318687 0.653362937	1
0.612871294 0.906200917 0.651963433	1
0.612736825 0.946210976 0.650492099	1
0.612824206 0.986636798 0.651749567	1
0.653006402 0.026837313 0.646887389	1
0.653088363 0.067110073 0.655568944	1
0.653350278 0.107062910 0.665141826	1
0.653287954 0.146989020 0.676371878	1
0.653328138 0.187038122 0.686099497	1
0.653203090 0.226846081 0.694415911	1
0.653394120 0.266886060 0.700201369	1
0.653323359 0.306584272 0.702385502	1
0.653295195 0.346704509 0.702429943	1
0.653379355 0.386448766 0.700329582	1
0.653189207 0.426299282 0.694586323	1
0.653344722 0.466274739 0.686201493	1
0.653295106 0.506304768 0.676556299	1
0.653440907 0.546231641 0.665512231	1
0.653044153 0.585903440 0.655660739	1
0.653013896 0.626106848 0.646992877	1
0.652809563 0.666316475 0.640935430	1
0.652626036 0.706300039 0.639387477	1
0.652775724 0.746334276 0.639086560	1
0.652739979 0.786346653 0.639786663	1
0.652901664 0.826357946 0.640665129	1
0.652805259 0.866147439 0.640109169	1
0.652749753 0.906056124 0.638932219	1
0.652696491 0.946142438 0.638964003	1
0.652834390 0.986397158 0.640796160	1
0.692951024 0.026579498 0.634661194	1
0.693109402 0.067004754 0.644750363	1
0.693049596 0.107068326 0.656597771	1
0.693417105 0.147050709 0.668100979	1
0.693434033 0.186997326 0.679723245	1
0.693240061 0.226979667 0.689961469	1
0.693273170 0.266854518 0.697635042	1
0.693186911 0.306798971 0.701544691	1
0.693413664 0.346705864 0.702416033	1
0.693192204 0.386374010 0.701578451	1
0.693292855 0.426399499 0.697650785	1
0.693300610 0.466196833 0.689971672	1
0.693519741 0.506378693 0.680058734	1
0.693393180 0.546012503 0.669114229	1
0.693020491 0.585939314 0.656860455	1
0.693130084 0.626061272 0.644934506	1
0.692937539 0.666335248 0.634689755	1
0.692851476 0.706265469 0.627961756	1
0.692601824 0.746165332 0.625372374	1
0.692558080 0.786390746 0.623959989	1
0.692725429 0.826284139 0.624003375	1
0.692634943 0.866164221 0.624386447	1
0.692536713 0.906067980 0.623844090	1
0.692608387 0.946237905 0.624601944	1
0.692878719 0.986443063 0.627804382	1
0.732866432 0.026628609 0.620555240	1
0.733050328 0.066945934 0.631706062	1
0.733128508 0.106991864 0.644986865	1
0.733128971 0.146948257 0.658561619	1
0.733351752 0.187009682 0.670902798	1
0.733217693 0.226934636 0.681817499	1
0.733122963 0.266743549 0.690964628	1
0.733104827 0.306713403 0.697640231	1
0.733068616 0.346625451 0.700301873	1
0.733073778 0.386441513 0.700305419	1
0.733148911 0.426416897 0.697657247	1
0.733266890 0.466337999 0.690874565	1
0.733264537 0.506270748 0.681688055	1
0.733431140 0.546275546 0.671067883	1
0.733159668 0.586129979 0.658792546	1
0.733107920 0.626072964 0.645059945	1
0.733030522 0.666004401 0.631766876	1
0.732790724 0.706116502 0.620703766	1
0.732659042 0.746130004 0.613020787	1
0.732482239 0.786040395 0.608579462	1
0.732442231 0.826185221 0.605930105	1
0.732636664 0.866250697 0.605496517	1
0.732521567 0.906171365 0.605967178	1
0.732569535 0.946372994 0.608227449	1
0.732609375 0.986453234 0.612805011	1
0.772638677 0.026719612 0.604214028	1
0.772942328 0.066972130 0.616699475	1
0.772992853 0.106898091 0.631276652	1
0.773178746 0.146868715 0.645682555	1
0.773118197 0.186655262 0.659414879	1
0.773173355 0.226795799 0.671572584	1
0.773023926 0.266765258 0.681853513	1
0.772973253 0.306736288 0.689963468	1
0.773116419 0.346801122 0.694556731	1
0.773282929 0.386638101 0.695372242	1
0.773126551 0.426293029 0.694534692	1
0.773017710 0.466252975 0.689894242	1
0.773429087 0.506468776 0.681359056	1
0.773269144 0.546269765 0.671462446	1
0.773017861 0.586353991 0.659388993	1
0.773154267 0.626288958 0.645660253	1
0.772987937 0.666050674 0.631341421	1
0.772956076 0.705971449 0.616848015	1
0.772574519 0.745834461 0.604551302	1
0.772271604 0.785766230 0.595423907	1
0.772368941 0.826059100 0.589193062	1
0.772272007 0.865940847 0.586352529	1
0.772263387 0.906204442 0.586485502	1
0.772353568 0.946157864 0.589077021	1
0.772331304 0.986494412 0.595064998	1
0.812565272 0.026860484 0.584635430	1
0.812646253 0.067037618 0.599045794	1
0.812916103 0.107101544 0.615122251	1
0.812946719 0.146815120 0.630844058	1
0.813053777 0.186915869 0.646123540	1
0.813339493 0.226883535 0.659446249	1
0.812942711 0.266590841 0.671145653	1
0.812890419 0.306485770 0.680020018	1
0.812921725 0.346646104 0.686208656	1
0.813100841 0.386579407 0.688689349	1
0.813098576 0.426497203 0.688720420	1
0.812972520 0.466290178 0.686081828	1
0.813075286 0.506316634 0.679483721	1
0.813025200 0.546360122 0.670735995	1
0.813360761 0.586467830 0.659385960	1
0.813095435 0.626093818 0.646132266	1
0.812924042 0.666109608 0.630917335	1
0.812927580 0.705809539 0.615238998	1
0.812597256 0.745475531 0.599663184	1
0.812485749 0.785607461 0.585507329	1
0.812229377 0.825495163 0.574881578	1
0.812054346 0.865749435 0.568518685	1
0.811952094 0.905909889 0.566619491	1
0.812046819 0.946226037 0.568501783	1
0.812199354 0.986587918 0.574543230	1
0.852212545 0.026957494 0.563773015	1
0.852586534 0.067209496 0.579020155	1
0.852837900 0.107151359 0.596733940	1
0.852899241 0.147105974 0.614389191	1
0.853182986 0.187057638 0.630834477	1
0.853137917 0.226845733 0.645662922	1
0.853001183 0.266835817 0.658790159	1
0.852673214 0.306580819 0.669049276	1
0.853011942 0.346703334 0.676527169	1
0.852802037 0.386535587 0.681065532	1
0.853064191 0.426486898 0.682193244	1
0.852820077 0.466243942 0.681110108	1
0.853016016 0.506295529 0.676339831	1
0.853022356 0.546341735 0.668060944	1
0.853053608 0.586161638 0.658543589	1
0.853121060 0.626289556 0.645670229	1
0.853211841 0.666131208 0.630946625	1
0.853030067 0.705683123 0.614826009	1
0.852793868 0.745633942 0.597112279	1
0.852672689 0.785348631 0.579657015	1
0.852222175 0.825058962 0.564591674	1
0.852057715 0.865434499 0.553690190	1
0.852019619 0.905716805 0.548171248	1
0.851945056 0.946169124 0.548085622	1
0.852029626 0.986572580 0.553338783	1
0.892239003 0.027060432 0.543369227	1
0.892427852 0.067282241 0.558564953	1
0.892569288 0.107210291 0.576946304	1
0.892836798 0.147155739 0.596708219	1
0.892900910 0.187083570 0.615100957	1
0.893097443 0.227012872 0.631252284	1
0.892989285 0.266889531 0.645029723	1
0.892927381 0.306986875 0.656831105	1
0.892824040 0.346569444 0.665403764	1
0.892834440 0.386608072 0.671850444	1
0.892935891 0.426547979 0.674955431	1
0.892932692 0.466377697 0.674972347	1
0.892887098 0.506244196 0.671857355	1
0.892931414 0.546276900 0.665142878	1
0.892926726 0.585984363 0.656632031	1
0.893012445 0.626137928 0.645014498	1
0.893079346 0.666050845 0.631327005	1
0.892882442 0.705782130 0.615188501	1
0.892871448 0.745659039 0.597074560	1
0.892755822 0.785135473 0.577874782	1
0.892448149 0.824993082 0.559644559	1
0.892371937 0.865081095 0.544117907	1
0.892025400 0.905362289 0.534040852	1
0.891921835 0.945935483 0.530719383	1
0.891978364 0.986572157 0.533846548	1
0.932280541 0.026990865 0.526168080	1
0.932468041 0.067391719 0.539550287	1
0.932492088 0.107461820 0.558571309	1
0.932779071 0.147399123 0.579065759	1
0.932963328 0.187349221 0.599063719	1
0.933020896 0.227055781 0.616685199	1
0.933036670 0.266959571 0.631680617	1
0.932967823 0.306878950 0.644814978	1
0.932873020 0.346933415 0.655588929	1
0.932869453 0.386714427 0.663134185	1
0.932842657 0.426710322 0.667492584	1
0.933033735 0.466509595 0.668729774	1
0.932836848 0.506095982 0.667651198	1
0.932878133 0.546145324 0.663193337	1
0.932881527 0.585972735 0.655651989	1
0.932986946 0.626113751 0.644897816	1
0.932998776 0.666041460 0.631814855	1
0.933034409 0.705963632 0.616705463	1
0.932913020 0.745524229 0.599310065	1
0.932698478 0.785321631 0.579538841	1
0.932713590 0.825125351 0.559594747	1
0.932542610 0.864885195 0.540876637	1
0.932305723 0.905295415 0.526503469	1
0.932203310 0.945607451 0.519028511	1
0.932207151 0.986561170 0.518991131	1
0.972784480 0.027189256 0.514921560	1
0.972994934 0.067711335 0.526152432	1
0.972866242 0.107700040 0.543321137	1
0.972989895 0.147732656 0.563869861	1
0.973106708 0.187370008 0.584722712	1
0.973273976 0.227358734 0.604232192	1
0.973370601 0.267135988 0.620536695	1
0.973418544 0.307059897 0.634618179	1
0.973161524 0.347004070 0.646905741	1
0.972895140 0.386798162 0.656117749	1
0.973061603 0.426844945 0.661923133	1
0.973435273 0.466833950 0.664184239	1
0.973409565 0.506513871 0.664297325	1
0.973067555 0.546189240 0.662086433	1
0.972902353 0.586090440 0.656284401	1
0.973110650 0.626114562 0.647055114	1
0.973427958 0.666373115 0.634869814	1
0.973328595 0.706134741 0.620753966	1
0.973250000 0.745828889 0.604523087	1
0.973153519 0.785625649 0.585356252	1
0.972942021 0.825068264 0.564641253	1
0.972741936 0.865048413 0.544170908	1
0.973022747 0.905298731 0.526492119	1
0.972822683 0.945582915 0.514939224	1
0.972988509 0.986457238 0.510831737	1
0.027865350 0.013925835 0.431863786	2
0.027883009 0.055715481 0.436914732	2
0.027706184 0.096972426 0.447745677	2
0.027597551 0.137593378 0.465281331	2
0.027600507 0.177665273 0.486048862	2
0.027654794 0.217394569 0.506863261	2
0.027665327 0.256827504 0.525497125	2
0.027711155 0.296268459 0.541572497	2
0.027816161 0.335961754 0.555911337	2
0.027510029 0.375608819 0.567757109	2
0.027317777 0.415017965 0.576120868	2
0.027551381 0.454469362 0.582161940	2
0.028132555 0.494276154 0.585213989	2
0.028142700 0.533838685 0.585309754	2
0.027513644 0.572999704 0.582528847	2
0.027347831 0.612342396 0.576544585	2
0.027476840 0.651906755 0.568074926	2
0.027743983 0.691870008 0.556334513	2
0.027627437 0.731404940 0.542165506	2
0.027680154 0.770802561 0.525880994	2
0.027587399 0.810081461 0.507438253	2
0.027531331 0.849818052 0.486485522	2
0.027530293 0.889906371 0.465392688	2
0.027685759 0.930681624 0.447809239	2
0.027868509 0.972141740 0.436928067	2
0.069461886 0.013877024 0.439661700	2
0.069451501 0.055526952 0.439683499	2
0.069304083 0.096988272 0.447779851	2
0.068911689 0.137765311 0.462833101	2
0.068633026 0.177920214 0.481686382	2
0.068425313 0.217696830 0.501263254	2
0.068297142 0.257220855 0.521649349	2
0.068397300 0.296782504 0.539121129	2
0.068388250 0.336371688 0.554156166	2
0.068365391 0.375993211 0.567069412	2
0.068146257 0.415599402 0.577378177	2
0.068227647 0.455041643 0.585062867	2
0.068667153 0.494718419 0.588930581	2
0.068679629 0.534303856 0.589765334	2
0.068615589 0.573885736 0.589093636	2
0.068199905 0.613141446 0.585361248	2
0.068130503 0.652511576 0.577679400	2
0.068271229 0.692301040 0.567545332	2
0.068159693 0.731776245 0.555156281	2
0.068252820 0.771295831 0.540086778	2
0.068289208 0.810913956 0.522630162	2
0.068256979 0.850383996 0.502219193	2
0.068536452 0.890452841 0.482174718	2
0.068923217 0.931038655 0.462744152	2
0.069308155 0.972295771 0.447824486	2
0.110590387 0.013891892 0.455185472	2
0.110636386 0.055311523 0.451436995	2
0.110588105 0.096651233 0.455168237	2
0.110042780 0.137524661 0.465384999	2
0.109331794 0.177875880 0.481647001	2
0.109012339 0.217936847 0.500538051	2
0.108729506 0.257502674 0.519412308	2
0.108724868 0.297052542 0.538716759	2
0.108738310 0.336646303 0.554502328	2
0.108417156 0.376132191 0.567861173	2
0.108452353 0.415883351 0.580380713	2
0.108566524 0.455384611 0.588425550	2
0.108694786 0.494947750 0.594459796	2
0.108620336 0.534485155 0.596627242	2
0.108559460 0.574018928 0.596841096	2
0.108622173 0.613631398 0.594721934	2
0.108522753 0.653131950 0.588665236	2
0.108442914 0.692575769 0.580463880	2
0.108354287 0.732271734 0.568071151	2
0.108567030 0.771948786 0.555112129	2
0.108649443 0.811525175 0.539099499	2
0.108453098 0.850955450 0.520700431	2
0.108942876 0.890949321 0.500842097	2
0.109313269 0.931327705 0.481753393	2
0.110063614 0.972444300 0.465375728	2
0.150897373 0.013799325 0.474893045	2
0.151251246 0.055080806 0.468214260	2
0.151286745 0.096104031 0.468390950	2
0.150888152 0.137039209 0.474962108	2
0.150115517 0.177579462 0.486287053	2
0.149394011 0.217681548 0.501299596	2
0.148933094 0.257537394 0.519440308	2
0.148566830 0.297054997 0.538800837	2
0.148522011 0.336564723 0.555217343	2
0.148522648 0.376257293 0.569817105	2
0.148275893 0.415922450 0.581905056	2
0.148680432 0.455583170 0.592304253	2
0.148704973 0.495015467 0.599840152	2
0.148363149 0.534574453 0.603279326	2
0.148378990 0.574171626 0.604445542	2
0.148290862 0.613707712 0.603227884	2
0.148654221 0.653620239 0.599988317	2
0.148647696 0.693076178 0.592459009	2
0.148223166 0.732337555 0.582020381	2
0.148442159 0.772157113 0.569772877	2
0.148385231 0.811812739 0.555384922	2
0.148494931 0.851464566 0.539089042	2
0.148936225 0.891281157 0.520220143	2
0.149321320 0.931523288 0.501676844	2
0.150065611 0.972355969 0.486420689	2
0.190531827 0.013482443 0.494726676	2
0.191211880 0.054823455 0.488256720	2
0.191496184 0.095688856 0.486171901	2
0.191238498 0.136355992 0.488281130	2
0.190550232 0.177002614 0.494683714	2
0.189841958 0.217375619 0.506926235	2
0.189060397 0.257248800 0.521770734	2
0.188570681 0.297019133 0.538080468	2
0.188235192 0.336570210 0.555239444	2
0.188128243 0.376127035 0.570369213	2
0.188136592 0.415826999 0.584128229	2
0.188191009 0.455433410 0.594578858	2
0.188330128 0.495051647 0.602996091	2
0.188277976 0.534581286 0.608734929	2
0.188107972 0.574186438 0.611305092	2
0.188054909 0.613809765 0.611462383	2
0.188198537 0.653582186 0.609006356	2
0.188253733 0.693195838 0.603142105	2
0.188174228 0.732734616 0.594670063	2
0.188066599 0.772221908 0.583984413	2
0.188043863 0.811906548 0.570436248	2
0.188145099 0.851539082 0.555506505	2
0.188462655 0.891335149 0.538991517	2
0.188999344 0.931684119 0.522196204	2
0.189793369 0.972340092 0.507176708	2
0.229915616 0.013319958 0.515337550	2
0.230708652 0.054440371 0.508430082	2
0.231182917 0.095258794 0.504675057	2
0.231101650 0.135749823 0.504966044	2
0.230734894 0.176239912 0.508433488	2
0.229926411 0.216563243 0.515335017	2
0.229185581 0.256844858 0.525619886	2
0.228719345 0.296901300 0.539885579	2
0.228257886 0.336564735 0.554337444	2
0.227889205 0.376279374 0.569530728	2
0.227792944 0.415831075 0.583954017	2
0.227737646 0.455448858 0.595387261	2
0.227971107 0.495277440 0.606318662	2
0.228027610 0.534837907 0.613490674	2
0.227881352 0.574297435 0.615821928	2
0.227669643 0.613829111 0.618234823	2
0.227838595 0.653558627 0.615664086	2
0.227975639 0.693193282 0.613618247	2
0.227948800 0.732675790 0.606410005	2
0.227731018 0.772266107 0.595405777	2
0.227715000 0.811881165 0.584103218	2
0.227797589 0.851507466 0.569864793	2
0.228031183 0.891402977 0.555042701	2
0.228688362 0.931745484 0.540028125	2
0.229164705 0.972298549 0.525730882	2
0.269311995 0.013208333 0.532545221	2
0.270139482 0.054192074 0.527032936	2
0.270626694 0.094994997 0.524340922	2
0.270786727 0.135384747 0.523798900	2
0.270612246 0.175617575 0.524293632	2
0.270145828 0.215947799 0.527069630	2
0.269329192 0.256102764 0.532559342	2
0.268658252 0.296250663 0.541939976	2
0.268379024 0.336358451 0.554694902	2
0.267790287 0.376093585 0.567978023	2
0.267707027 0.415899897 0.581829414	2
0.267259782 0.455427861 0.594668758	2
0.267309162 0.495257917 0.606304896	2